NAME : amz2310.118068_118068.tour
COMMENT : Cost = 118068_118068
COMMENT : Found by LKH-AMZ [Keld Helsgaun] Sun May 11 13:50:44 2025
COMMENT : TW viol.: 0 #: 0
TYPE : TOUR
DIMENSION : 179
TOUR_SECTION
146
144
82
66
86
11
115
137
162
129
26
145
74
172
155
45
98
174
68
5
97
19
156
149
79
87
47
140
105
85
7
9
178
20
101
113
89
164
168
43
12
14
41
22
84
72
107
117
154
1
34
121
29
91
147
33
13
142
143
169
100
81
88
36
126
132
106
70
16
130
38
151
50
179
53
57
77
78
102
59
92
44
67
139
175
37
131
165
114
24
80
35
30
25
60
166
48
58
28
71
123
49
150
176
118
167
116
111
90
135
95
6
64
177
75
69
76
171
54
173
110
163
10
73
133
65
120
96
141
2
153
62
31
40
63
51
94
127
61
21
134
42
138
125
109
128
157
160
112
3
32
18
158
8
122
52
159
27
15
4
46
136
103
23
55
93
161
39
152
104
170
17
124
108
148
56
119
83
99
-1
EOF
